24° run output:
{
    "Function": "kroA400.tsp",
    "Problem dimension": [
        183,
        251,
        205,
        96,
        155,
        386,
        12,
        54,
        218,
        159,
        149,
        93,
        30,
        274,
        262,
        120,
        331,
        325,
        381,
        52,
        388,
        365,
        180,
        276,
        16,
        270,
        196,
        77,
        174,
        109,
        135,
        391,
        121,
        191,
        370,
        19,
        57,
        97,
        307,
        112,
        201,
        253,
        350,
        223,
        39,
        148,
        199,
        7,
        41,
        55,
        263,
        296,
        333,
        162,
        398,
        374,
        87,
        294,
        70,
        195,
        208,
        297,
        106,
        145,
        138,
        74,
        397,
        378,
        288,
        277,
        175,
        369,
        23,
        171,
        128,
        184,
        82,
        225,
        371,
        73,
        245,
        257,
        37,
        21,
        336,
        53,
        394,
        127,
        302,
        76,
        392,
        261,
        48,
        17,
        241,
        305,
        64,
        320,
        84,
        284,
        123,
        364,
        304,
        360,
        119,
        190,
        122,
        272,
        59,
        287,
        207,
        298,
        65,
        375,
        51,
        335,
        351,
        250,
        376,
        221,
        308,
        367,
        204,
        176,
        101,
        354,
        271,
        328,
        58,
        318,
        132,
        194,
        45,
        130,
        346,
        390,
        186,
        173,
        282,
        254,
        71,
        299,
        268,
        3,
        34,
        185,
        269,
        79,
        342,
        214,
        279,
        399,
        44,
        170,
        154,
        156,
        247,
        348,
        264,
        329,
        321,
        382,
        203,
        99,
        246,
        248,
        317,
        86,
        26,
        107,
        13,
        362,
        24,
        267,
        179,
        356,
        300,
        62,
        164,
        359,
        226,
        32,
        240,
        227,
        281,
        363,
        143,
        290,
        160,
        100,
        14,
        249,
        182,
        168,
        1,
        150,
        224,
        38,
        129,
        2,
        151,
        334,
        368,
        169,
        165,
        275,
        108,
        177,
        349,
        220,
        341,
        47,
        319,
        60,
        230,
        63,
        157,
        393,
        31,
        81,
        252,
        43,
        115,
        361,
        259,
        142,
        113,
        377,
        125,
        322,
        133,
        316,
        111,
        238,
        66,
        114,
        88,
        311,
        219,
        153,
        166,
        46,
        265,
        301,
        33,
        353,
        286,
        283,
        20,
        172,
        42,
        345,
        372,
        330,
        313,
        67,
        5,
        310,
        213,
        385,
        197,
        389,
        40,
        29,
        260,
        139,
        243,
        292,
        198,
        10,
        237,
        118,
        50,
        273,
        332,
        69,
        136,
        188,
        357,
        72,
        236,
        217,
        239,
        235,
        210,
        339,
        366,
        163,
        206,
        315,
        25,
        134,
        95,
        337,
        116,
        289,
        202,
        18,
        105,
        212,
        344,
        56,
        343,
        358,
        293,
        209,
        161,
        306,
        228,
        140,
        309,
        104,
        244,
        110,
        15,
        35,
        189,
        146,
        192,
        215,
        384,
        152,
        396,
        9,
        94,
        338,
        6,
        117,
        373,
        229,
        255,
        126,
        78,
        144,
        234,
        383,
        380,
        91,
        131,
        242,
        167,
        49,
        90,
        312,
        147,
        233,
        61,
        27,
        216,
        85,
        211,
        22,
        355,
        0,
        231,
        326,
        89,
        102,
        4,
        75,
        181,
        124,
        266,
        285,
        295,
        137,
        98,
        158,
        193,
        28,
        291,
        80,
        222,
        352,
        256,
        92,
        103,
        83,
        11,
        68,
        141,
        232,
        303,
        324,
        379,
        200,
        258,
        178,
        280,
        387,
        340,
        347,
        327,
        187,
        8,
        36,
        395,
        323,
        314,
        278
    ],
    "Global Optimum": 0,
    "Algorithm": "Genetic algorithm",
    "Parameters": {
        "population": 30,
        "offspring": 30,
        "mutation probability": 0.0025,
        "crossover probability": 0.9
    },
    "Fitness": 381700,
    "Solution": [
        183,
        251,
        205,
        96,
        155,
        386,
        12,
        54,
        218,
        159,
        149,
        93,
        30,
        274,
        262,
        120,
        331,
        325,
        381,
        52,
        388,
        365,
        180,
        276,
        16,
        270,
        196,
        77,
        174,
        109,
        135,
        391,
        121,
        191,
        370,
        19,
        57,
        97,
        307,
        112,
        201,
        253,
        350,
        223,
        39,
        148,
        199,
        7,
        41,
        55,
        263,
        296,
        333,
        162,
        398,
        374,
        87,
        294,
        70,
        195,
        208,
        297,
        106,
        145,
        138,
        74,
        397,
        378,
        288,
        277,
        175,
        369,
        23,
        171,
        128,
        184,
        82,
        225,
        371,
        73,
        245,
        257,
        37,
        21,
        336,
        53,
        394,
        127,
        302,
        76,
        392,
        261,
        48,
        17,
        241,
        305,
        64,
        320,
        84,
        284,
        123,
        364,
        304,
        360,
        119,
        190,
        122,
        272,
        59,
        287,
        207,
        298,
        65,
        375,
        51,
        335,
        351,
        250,
        376,
        221,
        308,
        367,
        204,
        176,
        101,
        354,
        271,
        328,
        58,
        318,
        132,
        194,
        45,
        130,
        346,
        390,
        186,
        173,
        282,
        254,
        71,
        299,
        268,
        3,
        34,
        185,
        269,
        79,
        342,
        214,
        279,
        399,
        44,
        170,
        154,
        156,
        247,
        348,
        264,
        329,
        321,
        382,
        203,
        99,
        246,
        248,
        317,
        86,
        26,
        107,
        13,
        362,
        24,
        267,
        179,
        356,
        300,
        62,
        164,
        359,
        226,
        32,
        240,
        227,
        281,
        363,
        143,
        290,
        160,
        100,
        14,
        249,
        182,
        168,
        1,
        150,
        224,
        38,
        129,
        2,
        151,
        334,
        368,
        169,
        165,
        275,
        108,
        177,
        349,
        220,
        341,
        47,
        319,
        60,
        230,
        63,
        157,
        393,
        31,
        81,
        252,
        43,
        115,
        361,
        259,
        142,
        113,
        377,
        125,
        322,
        133,
        316,
        111,
        238,
        66,
        114,
        88,
        311,
        219,
        153,
        166,
        46,
        265,
        301,
        33,
        353,
        286,
        283,
        20,
        172,
        42,
        345,
        372,
        330,
        313,
        67,
        5,
        310,
        213,
        385,
        197,
        389,
        40,
        29,
        260,
        139,
        243,
        292,
        198,
        10,
        237,
        118,
        50,
        273,
        332,
        69,
        136,
        188,
        357,
        72,
        236,
        217,
        239,
        235,
        210,
        339,
        366,
        163,
        206,
        315,
        25,
        134,
        95,
        337,
        116,
        289,
        202,
        18,
        105,
        212,
        344,
        56,
        343,
        358,
        293,
        209,
        161,
        306,
        228,
        140,
        309,
        104,
        244,
        110,
        15,
        35,
        189,
        146,
        192,
        215,
        384,
        152,
        396,
        9,
        94,
        338,
        6,
        117,
        373,
        229,
        255,
        126,
        78,
        144,
        234,
        383,
        380,
        91,
        131,
        242,
        167,
        49,
        90,
        312,
        147,
        233,
        61,
        27,
        216,
        85,
        211,
        22,
        355,
        0,
        231,
        326,
        89,
        102,
        4,
        75,
        181,
        124,
        266,
        285,
        295,
        137,
        98,
        158,
        193,
        28,
        291,
        80,
        222,
        352,
        256,
        92,
        103,
        83,
        11,
        68,
        141,
        232,
        303,
        324,
        379,
        200,
        258,
        178,
        280,
        387,
        340,
        347,
        327,
        187,
        8,
        36,
        395,
        323,
        314,
        278
    ],
    "Nb of functions evaluations": 400020,
    "Computational time in seconds": 1152.9203159809113,
    "Stopping criterion in evaluations": 400000
}